131843
14,47,61,103,4,15,96,60,91,79,43,24,102,74,83,57,80,89,23,92,9,34,26,50,68,99,19,81,46,77,86,25,45,72,82,51,100,35,75,63,32,7,53,84,49,18,70,94,78,3,101,105,38,104,11,41,67,95,54,71,37,39,36,85,48,73,33,2,62,22,21,17,90,64,16,20,56,40,6,88,13,31,65,98,69,42,106,8,97,52,5,55,30,29,12,93,76,58,1,87,28,27,10,44,59,66